NAME : u574
TYPE : OP
DIMENSION : 574
COST_LIMIT : 18453
ROUTE_NODES : 321
ROUTE_SCORE : 19691
ROUTE_COST : 18441
NODE_SEQUENCE_SECTION
1
50
51
52
53
58
59
60
76
75
73
74
115
116
117
118
119
120
121
122
123
98
97
139
138
137
140
141
142
143
144
146
147
148
149
150
158
157
156
160
161
162
163
155
154
153
168
169
170
171
172
173
174
175
176
177
178
179
180
181
285
286
287
288
293
294
295
296
305
306
307
308
304
303
302
301
300
311
310
312
313
314
315
316
317
318
320
321
322
323
324
325
326
328
329
271
272
273
274
275
276
277
279
280
278
263
264
265
389
390
388
387
386
384
383
385
382
377
376
375
374
373
378
381
380
379
269
333
334
335
336
337
342
341
340
338
339
372
371
370
345
346
347
369
368
367
349
348
351
350
366
365
364
363
362
361
407
408
409
410
411
359
360
353
354
355
356
358
357
412
413
414
415
416
417
418
419
420
421
422
425
426
427
428
424
423
432
431
430
434
433
446
445
447
444
443
442
452
454
455
451
456
450
449
401
400
399
398
402
403
404
394
393
392
391
261
260
259
258
257
255
256
395
397
396
461
462
463
460
458
459
457
468
469
467
470
471
473
474
476
475
466
465
464
254
252
251
253
192
191
193
194
190
195
196
197
198
199
200
201
249
248
202
203
245
246
247
519
518
517
516
515
477
513
514
478
479
480
484
483
482
481
507
506
508
512
510
509
498
499
500
501
502
503
505
504
534
535
533
537
538
539
540
541
542
544
545
547
546
550
551
553
554
555
556
557
562
563
568
569
574
-1
DEPOT_SECTION
1
-1
EOF
